\* FlexOffer_multimarket_scheduling *\
Maximize
OBJ: 2.2377 r_up_0 + 2.9836 r_up_1 + 2.23764 r_up_10 + 2.23764 r_up_11
 + 2.23764 r_up_12 + 2.013876 r_up_13 + 3.28196 r_up_2 + 3.28196 r_up_3
 + 2.83442 r_up_4 + 2.2377 r_up_5 + 2.53606 r_up_6 + 2.53606 r_up_7
 + 2.23764 r_up_8 + 2.23764 r_up_9
Subject To
_C1: - p_t_0 + r_up_0 <= 0
_C10: r_up_1 >= 0
_C11: start_0 = 1
_C12: p_t_1 - 6.65 start_0 <= 0
_C13: - p_t_2 + r_up_2 <= 0
_C14: r_up_2 >= 0
_C15: p_t_2 + r_down_2 <= 6.65
_C16: r_up_2 >= 0
_C17: start_0 = 1
_C18: p_t_2 - 6.65 start_0 <= 0
_C19: - p_t_3 + r_up_3 <= 0
_C2: r_up_0 >= 0
_C20: r_up_3 >= 0
_C21: p_t_3 + r_down_3 <= 6.65
_C22: r_up_3 >= 0
_C23: start_0 = 1
_C24: p_t_3 - 6.65 start_0 <= 0
_C25: - p_t_4 + r_up_4 <= 0
_C26: r_up_4 >= 0
_C27: p_t_4 + r_down_4 <= 6.65
_C28: r_up_4 >= 0
_C29: start_0 = 1
_C3: p_t_0 + r_down_0 <= 6.65
_C30: p_t_4 - 6.65 start_0 <= 0
_C31: - p_t_5 + r_up_5 <= 0
_C32: r_up_5 >= 0
_C33: p_t_5 + r_down_5 <= 6.65
_C34: r_up_5 >= 0
_C35: start_0 = 1
_C36: p_t_5 - 6.65 start_0 <= 0
_C37: - p_t_6 + r_up_6 <= 0
_C38: r_up_6 >= 0
_C39: p_t_6 + r_down_6 <= 6.65
_C4: r_up_0 >= 0
_C40: r_up_6 >= 0
_C41: start_0 = 1
_C42: p_t_6 - 6.65 start_0 <= 0
_C43: - p_t_7 + r_up_7 <= 0
_C44: r_up_7 >= 0
_C45: p_t_7 + r_down_7 <= 6.65
_C46: r_up_7 >= 0
_C47: start_0 = 1
_C48: p_t_7 - 6.65 start_0 <= 0
_C49: - p_t_8 + r_up_8 <= 0
_C5: start_0 = 1
_C50: r_up_8 >= 0
_C51: p_t_8 + r_down_8 <= 6.65
_C52: r_up_8 >= 0
_C53: start_0 = 1
_C54: p_t_8 - 6.65 start_0 <= 0
_C55: - p_t_9 + r_up_9 <= 0
_C56: r_up_9 >= 0
_C57: p_t_9 + r_down_9 <= 6.65
_C58: r_up_9 >= 0
_C59: start_0 = 1
_C6: p_t_0 - 6.65 start_0 <= 0
_C60: p_t_9 - 6.65 start_0 <= 0
_C61: - p_t_10 + r_up_10 <= 0
_C62: r_up_10 >= 0
_C63: p_t_10 + r_down_10 <= 6.65
_C64: r_up_10 >= 0
_C65: start_0 = 1
_C66: p_t_10 - 6.65 start_0 <= 0
_C67: - p_t_11 + r_up_11 <= 0
_C68: r_up_11 >= 0
_C69: p_t_11 + r_down_11 <= 6.65
_C7: - p_t_1 + r_up_1 <= 0
_C70: r_up_11 >= 0
_C71: start_0 = 1
_C72: p_t_11 - 6.65 start_0 <= 0
_C73: - p_t_12 + r_up_12 <= 0
_C74: r_up_12 >= 0
_C75: p_t_12 + r_down_12 <= 6.65
_C76: r_up_12 >= 0
_C77: start_0 = 1
_C78: p_t_12 - 6.65 start_0 <= 0
_C79: - p_t_13 + r_up_13 <= 0
_C8: r_up_1 >= 0
_C80: r_up_13 >= 0
_C81: p_t_13 + r_down_13 <= 6.65
_C82: r_up_13 >= 0
_C83: start_0 = 1
_C84: p_t_13 - 6.65 start_0 <= 0
_C9: p_t_1 + r_down_1 <= 6.65
Bounds
 p_t_0 <= 6.65
 p_t_1 <= 6.65
 p_t_10 <= 6.65
 p_t_11 <= 6.65
 p_t_12 <= 6.65
 p_t_13 <= 6.65
 p_t_2 <= 6.65
 p_t_3 <= 6.65
 p_t_4 <= 6.65
 p_t_5 <= 6.65
 p_t_6 <= 6.65
 p_t_7 <= 6.65
 p_t_8 <= 6.65
 p_t_9 <= 6.65
 r_down_0 <= 6.65
 r_down_1 <= 6.65
 r_down_10 <= 6.65
 r_down_11 <= 6.65
 r_down_12 <= 6.65
 r_down_13 <= 6.65
 r_down_2 <= 6.65
 r_down_3 <= 6.65
 r_down_4 <= 6.65
 r_down_5 <= 6.65
 r_down_6 <= 6.65
 r_down_7 <= 6.65
 r_down_8 <= 6.65
 r_down_9 <= 6.65
 r_up_0 <= 6.65
 r_up_1 <= 6.65
 r_up_10 <= 6.65
 r_up_11 <= 6.65
 r_up_12 <= 6.65
 r_up_13 <= 6.65
 r_up_2 <= 6.65
 r_up_3 <= 6.65
 r_up_4 <= 6.65
 r_up_5 <= 6.65
 r_up_6 <= 6.65
 r_up_7 <= 6.65
 r_up_8 <= 6.65
 r_up_9 <= 6.65
Binaries
start_0
End
